14° run output:
{
    "Function": "kroB300.tsp",
    "Problem dimension": [
        281,
        166,
        190,
        183,
        61,
        189,
        69,
        9,
        209,
        179,
        235,
        76,
        109,
        234,
        62,
        258,
        63,
        79,
        227,
        0,
        28,
        31,
        251,
        141,
        85,
        89,
        151,
        288,
        292,
        252,
        239,
        39,
        138,
        272,
        75,
        283,
        106,
        287,
        80,
        228,
        219,
        23,
        17,
        84,
        169,
        256,
        271,
        88,
        182,
        215,
        285,
        30,
        194,
        46,
        197,
        196,
        148,
        20,
        205,
        41,
        14,
        127,
        289,
        186,
        217,
        110,
        25,
        195,
        207,
        53,
        192,
        270,
        44,
        167,
        225,
        262,
        201,
        117,
        111,
        274,
        116,
        66,
        78,
        49,
        70,
        29,
        180,
        100,
        229,
        92,
        98,
        94,
        293,
        231,
        60,
        91,
        260,
        223,
        247,
        175,
        4,
        48,
        188,
        99,
        55,
        261,
        77,
        222,
        108,
        267,
        206,
        101,
        51,
        10,
        90,
        133,
        103,
        236,
        35,
        154,
        265,
        12,
        297,
        107,
        278,
        65,
        125,
        40,
        153,
        114,
        33,
        82,
        254,
        210,
        142,
        36,
        277,
        128,
        157,
        224,
        282,
        11,
        132,
        280,
        59,
        152,
        129,
        290,
        81,
        226,
        95,
        176,
        279,
        144,
        249,
        5,
        146,
        162,
        38,
        185,
        158,
        164,
        160,
        24,
        121,
        284,
        145,
        71,
        257,
        198,
        83,
        174,
        97,
        200,
        299,
        275,
        37,
        269,
        27,
        230,
        124,
        15,
        178,
        165,
        19,
        246,
        263,
        21,
        1,
        47,
        181,
        3,
        32,
        143,
        238,
        58,
        295,
        214,
        115,
        204,
        298,
        16,
        104,
        177,
        93,
        220,
        112,
        240,
        168,
        137,
        193,
        213,
        113,
        34,
        171,
        135,
        72,
        294,
        139,
        163,
        266,
        105,
        276,
        273,
        208,
        253,
        2,
        259,
        211,
        130,
        245,
        155,
        43,
        73,
        42,
        13,
        119,
        50,
        45,
        156,
        57,
        250,
        6,
        102,
        120,
        136,
        18,
        291,
        232,
        218,
        67,
        241,
        8,
        233,
        243,
        118,
        147,
        212,
        150,
        191,
        199,
        56,
        296,
        87,
        242,
        159,
        161,
        237,
        134,
        170,
        221,
        149,
        126,
        68,
        74,
        52,
        131,
        96,
        7,
        22,
        248,
        54,
        86,
        255,
        268,
        173,
        172,
        140,
        187,
        123,
        64,
        122,
        286,
        264,
        202,
        216,
        203,
        184,
        26,
        244
    ],
    "Global Optimum": 0,
    "Algorithm": "Genetic algorithm",
    "Parameters": {
        "population": 30,
        "offspring": 30,
        "mutation probability": 0.0033333333333333335,
        "crossover probability": 0.9
    },
    "Fitness": 295828,
    "Solution": [
        281,
        166,
        190,
        183,
        61,
        189,
        69,
        9,
        209,
        179,
        235,
        76,
        109,
        234,
        62,
        258,
        63,
        79,
        227,
        0,
        28,
        31,
        251,
        141,
        85,
        89,
        151,
        288,
        292,
        252,
        239,
        39,
        138,
        272,
        75,
        283,
        106,
        287,
        80,
        228,
        219,
        23,
        17,
        84,
        169,
        256,
        271,
        88,
        182,
        215,
        285,
        30,
        194,
        46,
        197,
        196,
        148,
        20,
        205,
        41,
        14,
        127,
        289,
        186,
        217,
        110,
        25,
        195,
        207,
        53,
        192,
        270,
        44,
        167,
        225,
        262,
        201,
        117,
        111,
        274,
        116,
        66,
        78,
        49,
        70,
        29,
        180,
        100,
        229,
        92,
        98,
        94,
        293,
        231,
        60,
        91,
        260,
        223,
        247,
        175,
        4,
        48,
        188,
        99,
        55,
        261,
        77,
        222,
        108,
        267,
        206,
        101,
        51,
        10,
        90,
        133,
        103,
        236,
        35,
        154,
        265,
        12,
        297,
        107,
        278,
        65,
        125,
        40,
        153,
        114,
        33,
        82,
        254,
        210,
        142,
        36,
        277,
        128,
        157,
        224,
        282,
        11,
        132,
        280,
        59,
        152,
        129,
        290,
        81,
        226,
        95,
        176,
        279,
        144,
        249,
        5,
        146,
        162,
        38,
        185,
        158,
        164,
        160,
        24,
        121,
        284,
        145,
        71,
        257,
        198,
        83,
        174,
        97,
        200,
        299,
        275,
        37,
        269,
        27,
        230,
        124,
        15,
        178,
        165,
        19,
        246,
        263,
        21,
        1,
        47,
        181,
        3,
        32,
        143,
        238,
        58,
        295,
        214,
        115,
        204,
        298,
        16,
        104,
        177,
        93,
        220,
        112,
        240,
        168,
        137,
        193,
        213,
        113,
        34,
        171,
        135,
        72,
        294,
        139,
        163,
        266,
        105,
        276,
        273,
        208,
        253,
        2,
        259,
        211,
        130,
        245,
        155,
        43,
        73,
        42,
        13,
        119,
        50,
        45,
        156,
        57,
        250,
        6,
        102,
        120,
        136,
        18,
        291,
        232,
        218,
        67,
        241,
        8,
        233,
        243,
        118,
        147,
        212,
        150,
        191,
        199,
        56,
        296,
        87,
        242,
        159,
        161,
        237,
        134,
        170,
        221,
        149,
        126,
        68,
        74,
        52,
        131,
        96,
        7,
        22,
        248,
        54,
        86,
        255,
        268,
        173,
        172,
        140,
        187,
        123,
        64,
        122,
        286,
        264,
        202,
        216,
        203,
        184,
        26,
        244
    ],
    "Nb of functions evaluations": 200010,
    "Computational time in seconds": 333.97885608673096,
    "Stopping criterion in evaluations": 200000
}